c instance by G2
c solution = 1011100100111101000
c Known solution cost is 1033 
p cnf 19 30
w 69 19 30 43 75 18 28 38 66 63 49 30 44 90 98 88 78 14 93
-15 -14 -4 0
-2 7 -3 0
17 -16 3 0
-4 12 19 0
1 14 -15 0
1 -15 -5 0
-2 -6 -3 0
4 -3 -5 0
8 -6 9 0
11 -12 19 0
-19 -18 -17 0
-18 -3 -5 0
13 3 -11 0
9 -8 16 0
7 -18 10 0
-12 -11 5 0
-1 -14 -6 0
-19 -1 -5 0
6 -7 -4 0
9 1 11 0
8 19 -16 0
19 14 2 0
3 -15 12 0
-17 -12 7 0
-14 1 9 0
-10 16 13 0
-3 18 -9 0
-10 19 -8 0
19 10 13 0
8 -17 -1 0
